************************************************************************
file with basedata            : md339_.bas
initial value random generator: 1131856427
************************************************************************
projects                      :  1
jobs (incl. supersource/sink ):  22
horizon                       :  161
RESOURCES
  - renewable                 :  2   R
  - nonrenewable              :  2   N
  - doubly constrained        :  0   D
************************************************************************
PROJECT INFORMATION:
pronr.  #jobs rel.date duedate tardcost  MPM-Time
    1     20      0       23        4       23
************************************************************************
PRECEDENCE RELATIONS:
jobnr.    #modes  #successors   successors
   1        1          3           2   3   4
   2        3          2          11  21
   3        3          2           5   8
   4        3          1           5
   5        3          3           6   9  15
   6        3          3           7  11  13
   7        3          3          10  14  16
   8        3          3          12  13  15
   9        3          2          14  16
  10        3          1          19
  11        3          1          12
  12        3          2          17  19
  13        3          2          16  18
  14        3          2          17  18
  15        3          2          18  20
  16        3          2          17  21
  17        3          1          20
  18        3          2          19  21
  19        3          1          22
  20        3          1          22
  21        3          1          22
  22        1          0        
************************************************************************
REQUESTS/DURATIONS:
jobnr. mode duration  R 1  R 2  N 1  N 2
------------------------------------------------------------------------
  1      1     0       0    0    0    0
  2      1     6       0    3    0    5
         2     8       0    3    8    0
         3     9       7    0    0    5
  3      1     1       0    3    0    9
         2     5       6    0    0    8
         3     7       0    1    0    6
  4      1     3       9    0    7    0
         2     6       7    0    4    0
         3     9       6    0    2    0
  5      1     2       0    7    0    4
         2     4       0    4    4    0
         3     4       4    0    3    0
  6      1     4       5    0    0    1
         2     5       2    0    6    0
         3     5       0    2    6    0
  7      1     3       8    0    8    0
         2     7       0    3    5    0
         3     9       5    0    2    0
  8      1     7       3    0    0    6
         2     9       2    0    0    6
         3     9       0    7    0    6
  9      1     1       6    0    0    2
         2     5       0    3    0    1
         3    10       4    0    3    0
 10      1     4       0    8    3    0
         2     4       0    8    0    9
         3     5       8    0    0    8
 11      1     2       6    0    0    3
         2     7       0    1    0    2
         3     8       6    0    9    0
 12      1     4       0    2    0    4
         2     5       0    2    0    3
         3     6       0    1    6    0
 13      1     1       6    0    9    0
         2     7       0    7    9    0
         3    10       1    0    0    5
 14      1     2       0    5    0   10
         2     9       0    5    0    9
         3    10       3    0    0    6
 15      1     4       0    3    0    6
         2     8       0    3    0    4
         3    10       0    2    8    0
 16      1     7       8    0    5    0
         2     7       0    9    0    6
         3     9       8    0    0    2
 17      1     3       9    0    0    7
         2     6       4    0    0    5
         3     8       3    0    0    4
 18      1     2       6    0    0    7
         2     5       0    3    7    0
         3     9       0    2    0    4
 19      1     5       0    3    0    9
         2     9       0    3    0    6
         3    10       5    0    9    0
 20      1     1       8    0    5    0
         2     4       0    6    3    0
         3     7       0    3    0    5
 21      1     4       0    7    8    0
         2     4       8    0    8    0
         3     7       4    0    7    0
 22      1     0       0    0    0    0
************************************************************************
RESOURCEAVAILABILITIES:
  R 1  R 2  N 1  N 2
   18   19   82   79
************************************************************************
MAXIMAL LAGS:
from  to  type  delay
    1   22   ES      0
    1    2   ES      0
    2   22   ES      0
    1    3   ES      0
    3   22   ES      0
    1    4   ES      0
    4   22   ES      0
    1    5   ES      0
    5   22   ES      0
    1    6   ES      0
    6   22   ES      0
    1    7   ES      0
    7   22   ES      0
    1    8   ES      0
    8   22   ES      0
    1    9   ES      0
    9   22   ES      0
    1   10   ES      0
   10   22   ES      0
    1   11   ES      0
   11   22   ES      0
    1   12   ES      0
   12   22   ES      0
    1   13   ES      0
   13   22   ES      0
    1   14   ES      0
   14   22   ES      0
    1   15   ES      0
   15   22   ES      0
    1   16   ES      0
   16   22   ES      0
    1   17   ES      0
   17   22   ES      0
    1   18   ES      0
   18   22   ES      0
    1   19   ES      0
   19   22   ES      0
    1   20   ES      0
   20   22   ES      0
    1   21   ES      0
   21   22   ES      0
    1   22   ES      0
    2   11   SS     -2
    2   11   SE     12
    2   11   ES      6
    2   11   EE    -11
    2   21   SS     10
    2   21   SE     -3
    2   21   ES      2
    2   21   EE      8
    3    5   SS     -7
    3    5   SE      6
    3    5   ES     -8
    3    5   EE      2
    3    8   SS     10
    3    8   SE      3
    3    8   ES     -3
    3    8   EE     -8
    4    5   SS     -6
    4    5   SE     -6
    4    5   ES     11
    4    5   EE     -6
    5    6   SS     11
    5    6   SE      8
    5    6   ES    -12
    5    6   EE     -1
    5    9   SS     11
    5    9   SE      6
    5    9   ES     -9
    5    9   EE      9
    5   15   SS     -8
    5   15   SE      0
    5   15   ES      1
    5   15   EE      9
    6    7   SS     -7
    6    7   SE    -11
    6    7   ES     -9
    6    7   EE     -1
    6   11   SS      3
    6   11   SE     -7
    6   11   ES    -11
    6   11   EE     -9
    6   13   SS      4
    6   13   SE      8
    6   13   ES     -2
    6   13   EE      6
    7   10   SS      1
    7   10   SE     -8
    7   10   ES      8
    7   10   EE     11
    7   14   SS      0
    7   14   SE     -5
    7   14   ES    -11
    7   14   EE     -9
    7   16   SS     -5
    7   16   SE      0
    7   16   ES      3
    7   16   EE     -3
    8   12   SS     10
    8   12   SE      7
    8   12   ES     -7
    8   12   EE      8
    8   13   SS     11
    8   13   SE      0
    8   13   ES     12
    8   13   EE     10
    8   15   SS      9
    8   15   SE      9
    8   15   ES    -10
    8   15   EE     12
    9   14   SS      2
    9   14   SE      8
   14    9   SE      0
    9   14   ES      0
    9   14   EE     -4
    9   16   SS      8
    9   16   SE      8
    9   16   ES      2
    9   16   EE     -1
   10   19   SS    -12
   10   19   SE     -9
   10   19   ES     -9
   10   19   EE    -10
   11   12   SS     -9
   11   12   SE      3
   11   12   ES      8
   11   12   EE      9
   12   17   SS      4
   12   17   SE     -5
   12   17   ES    -12
   12   17   EE      6
   12   19   SS      6
   12   19   SE      6
   12   19   ES      3
   12   19   EE     -4
   13   16   SS     10
   13   16   SE     11
   13   16   ES     -9
   13   16   EE      6
   13   18   SS     -7
   13   18   SE      0
   13   18   ES      3
   13   18   EE      8
   14   17   SS     10
   14   17   SE      1
   14   17   ES     -3
   14   17   EE      6
   14   18   SS     -8
   14   18   SE     -9
   14   18   ES     -2
   14   18   EE    -10
   15   18   SS     10
   15   18   SE      5
   15   18   ES     -7
   15   18   EE      0
   15   20   SS     10
   15   20   SE    -12
   15   20   ES      0
   15   20   EE      5
   16   17   SS      5
   16   17   SE      4
   16   17   ES      3
   16   17   EE    -10
   16   21   SS      4
   16   21   SE      6
   16   21   ES      5
   16   21   EE     10
   17   20   SS      8
   17   20   SE     -9
   17   20   ES     12
   17   20   EE     12
   18   19   SS     -6
   18   19   SE      9
   18   19   ES     -9
   18   19   EE     -7
   18   21   SS      7
   18   21   SE     10
   18   21   ES     -7
   18   21   EE    -12
************************************************************************
